*SENSE:Minimize
NAME          MODEL
ROWS
 N  OBJ
COLUMNS
    X0000000  OBJ        1.000000000000e+00
    X0000001  OBJ        1.000000000000e+00
    X0000002  OBJ        1.000000000000e+00
    X0000003  OBJ        1.000000000000e+00
    X0000004  OBJ        1.000000000000e+00
    X0000005  OBJ        1.000000000000e+00
    X0000006  OBJ        1.000000000000e+00
    X0000007  OBJ        1.000000000000e+00
    X0000008  OBJ        1.000000000000e+00
    X0000009  OBJ        1.000000000000e+00
    X0000010  OBJ        1.000000000000e+00
    X0000011  OBJ        1.000000000000e+00
    X0000012  OBJ        1.000000000000e+00
    X0000013  OBJ        1.000000000000e+00
    X0000014  OBJ        1.000000000000e+00
    X0000015  OBJ        1.000000000000e+00
    X0000016  OBJ        1.000000000000e+00
    X0000017  OBJ        1.000000000000e+00
    X0000018  OBJ        1.000000000000e+00
    X0000019  OBJ        1.000000000000e+00
    X0000020  OBJ        1.000000000000e+00
    X0000021  OBJ        1.000000000000e+00
    X0000022  OBJ        1.000000000000e+00
    X0000023  OBJ        1.000000000000e+00
    X0000024  OBJ        1.000000000000e+00
    X0000025  OBJ        1.000000000000e+00
    X0000026  OBJ        1.000000000000e+00
    X0000027  OBJ        1.000000000000e+00
    X0000028  OBJ        1.000000000000e+00
    X0000029  OBJ        1.000000000000e+00
    X0000030  OBJ        1.000000000000e+00
    X0000031  OBJ        1.000000000000e+00
    X0000032  OBJ        1.000000000000e+00
    X0000033  OBJ        1.000000000000e+00
    X0000034  OBJ        1.000000000000e+00
    X0000035  OBJ        1.000000000000e+00
    X0000036  OBJ        1.000000000000e+00
    X0000037  OBJ        1.000000000000e+00
    X0000038  OBJ        1.000000000000e+00
    X0000039  OBJ        1.000000000000e+00
    X0000040  OBJ        1.000000000000e+00
    X0000041  OBJ        1.000000000000e+00
    X0000042  OBJ        1.000000000000e+00
    X0000043  OBJ        1.000000000000e+00
    X0000044  OBJ        1.000000000000e+00
    X0000045  OBJ        1.000000000000e+00
    X0000046  OBJ        1.000000000000e+00
    X0000047  OBJ        1.000000000000e+00
    X0000048  OBJ        1.000000000000e+00
    X0000049  OBJ        1.000000000000e+00
    X0000050  OBJ        1.000000000000e+00
    X0000051  OBJ        1.000000000000e+00
    X0000052  OBJ        1.000000000000e+00
    X0000053  OBJ        1.000000000000e+00
    X0000054  OBJ        1.000000000000e+00
    X0000055  OBJ        1.000000000000e+00
    X0000056  OBJ        1.000000000000e+00
    X0000057  OBJ        1.000000000000e+00
    X0000058  OBJ        1.000000000000e+00
    X0000059  OBJ        1.000000000000e+00
    X0000060  OBJ        1.000000000000e+00
    X0000061  OBJ        1.000000000000e+00
    X0000062  OBJ        1.000000000000e+00
    X0000063  OBJ        1.000000000000e+00
    X0000064  OBJ        1.000000000000e+00
    X0000065  OBJ        1.000000000000e+00
    X0000066  OBJ        1.000000000000e+00
    X0000067  OBJ        1.000000000000e+00
    X0000068  OBJ        1.000000000000e+00
    X0000069  OBJ        1.000000000000e+00
    X0000070  OBJ        1.000000000000e+00
    X0000071  OBJ        1.000000000000e+00
    X0000072  OBJ        1.000000000000e+00
    X0000073  OBJ        1.000000000000e+00
    X0000074  OBJ        1.000000000000e+00
    X0000075  OBJ        1.000000000000e+00
    X0000076  OBJ        1.000000000000e+00
    X0000077  OBJ        1.000000000000e+00
    X0000078  OBJ        1.000000000000e+00
    X0000079  OBJ        1.000000000000e+00
    X0000080  OBJ        1.000000000000e+00
    X0000081  OBJ        1.000000000000e+00
    X0000082  OBJ        1.000000000000e+00
    X0000083  OBJ        1.000000000000e+00
    X0000084  OBJ        1.000000000000e+00
    X0000085  OBJ        1.000000000000e+00
    X0000086  OBJ        1.000000000000e+00
    X0000087  OBJ        1.000000000000e+00
    X0000088  OBJ        1.000000000000e+00
    X0000089  OBJ        1.000000000000e+00
    X0000090  OBJ        1.000000000000e+00
    X0000091  OBJ        1.000000000000e+00
    X0000092  OBJ        1.000000000000e+00
    X0000093  OBJ        1.000000000000e+00
    X0000094  OBJ        1.000000000000e+00
    X0000095  OBJ        1.000000000000e+00
    X0000096  OBJ        1.000000000000e+00
    X0000097  OBJ        1.000000000000e+00
    X0000098  OBJ        1.000000000000e+00
    X0000099  OBJ        1.000000000000e+00
RHS
BOUNDS
